row=8;
Board=[|2,8,-1,5,-1,1,-1,3,4,6|3,0,-1,4,8,-1,7,5,9,-1|9,6,8,0,-1,5,3,4,7,2|8,0,4,-1,-1,2,9,1,6,-1|4,5,-1,9,6,-1,0,8,7,1|3,8,0,-1,-1,2,7,-1,4,6|1,6,7,9,4,8,0,2,5,-1|9,4,5,-1,1,6,-1,-1,0,2|];
bottom=[39,37,35,43,37,33,29,39,42,26]